Route #1: 1 6 29 14 59 13 56 55 1
Route #2: 1 47 5 15 51 12 21 20 1
Route #3: 1 34 48 27 19 32 26 64 23 46 1
Route #4: 1 2 50 36 45 43 40 37 41 65 44 1
Route #5: 1 16 57 22 49 10 53 1
Route #6: 1 11 39 18 17 42 28 8 1
Route #7: 1 33 66 38 24 9 25 67 1
Route #8: 1 63 62 31 58 4 61 1
Route #9: 1 54 35 7 60 30 52 1
Route #10: 1 3 1
cost 1250.5998942128347